100 2672
652 773 790 682 488 111 928 242 245 225 813 393 353 264 477 234 364 848 753 752 112 605 50 374 647 373 710 70 792 575 979 814 786 229 714 355 559 861 789 386 106 748 560 217 585 313 155 915 363 568 965 921 49 83 26 320 545 314 526 537 542 516 376 180 425 363 623 300 787 292 839 205 111 156 941 904 868 827 358 374 249 788 100 472 463 939 544 565 850 829 656 556 536 499 10 509 207 782 735 427 
486 586 280 337 354 936 539 954 675 696 354 17 938 58 851 355 139 454 519 4 139 134 498 13 883 110 872 246 68 685 192 834 810 211 698 415 50 131 762 893 29 144 764 532 101 593 432 880 773 646 77 694 227 194 359 374 431 313 794 24 387 425 758 81 290 546 691 421 714 800 116 460 852 677 694 567 753 561 743 257 540 308 345 40 732 768 22 170 384 185 427 251 355 110 30 795 671 943 74 482 
